Al2 Mg O4                               
   1.00000000000000     
     8.1647444616789144   -0.0000000000000000    0.0000000000000000
     0.0000000000000000    8.1647444616789144   -0.0000000000000000
    -0.0000000000000000   -0.0000000000000000    8.1647444616789144
   O    Al   Mg
    32    16     8
Direct
  0.3614699834538287  0.3614699834538287  0.3614699834538287
  0.6385299265461710  0.1385299715461711  0.8614699534538333
  0.1385299715461711  0.8614699534538333  0.6385299265461710
  0.8614699534538333  0.6385299265461710  0.1385299715461711
  0.1114700064538342  0.6114699534538333  0.3885299565461663
  0.8885299265461710  0.8885299265461710  0.8885299265461710
  0.6114699534538333  0.3885299565461663  0.1114700064538342
  0.3885299565461663  0.1114700064538342  0.6114699534538333
  0.6114699534538333  0.1114700064538342  0.3885299565461663
  0.1114700064538342  0.3885299565461663  0.6114699534538333
  0.3885299565461663  0.6114699534538333  0.1114700064538342
  0.1385299715461711  0.6385299265461710  0.8614699534538333
  0.6385299265461710  0.8614699534538333  0.1385299715461711
  0.8614699534538333  0.1385299715461711  0.6385299265461710
  0.3614699834538287  0.8614699534538333  0.8614699534538333
  0.6385299265461710  0.6385299265461710  0.3614699834538287
  0.1385299715461711  0.3614699834538287  0.1385299715461711
  0.1114700064538342  0.1114700064538342  0.8885299265461710
  0.8885299265461710  0.3885299565461663  0.3885299565461663
  0.6114699534538333  0.8885299265461710  0.6114699534538333
  0.6114699534538333  0.6114699534538333  0.8885299265461710
  0.1114700064538342  0.8885299265461710  0.1114700064538342
  0.1385299715461711  0.1385299715461711  0.3614699834538287
  0.6385299265461710  0.3614699834538287  0.6385299265461710
  0.8614699534538333  0.3614699834538287  0.8614699534538333
  0.3614699834538287  0.6385299265461710  0.6385299265461710
  0.3885299565461663  0.8885299265461710  0.3885299565461663
  0.8885299265461710  0.1114700064538342  0.1114700064538342
  0.8885299265461710  0.6114699534538333  0.6114699534538333
  0.3614699834538287  0.1385299715461711  0.1385299715461711
  0.8614699534538333  0.8614699534538333  0.3614699834538287
  0.3885299565461663  0.3885299565461663  0.8885299265461710
  0.1249999930000030  0.1249999930000030  0.1249999930000030
  0.8749999400000021  0.3749999699999975  0.6249999400000021
  0.3749999699999975  0.6249999400000021  0.8749999400000021
  0.6249999400000021  0.8749999400000021  0.3749999699999975
  0.3749999699999975  0.8749999400000021  0.6249999400000021
  0.8749999400000021  0.6249999400000021  0.3749999699999975
  0.6249999400000021  0.3749999699999975  0.8749999400000021
  0.1249999930000030  0.6249999400000021  0.6249999400000021
  0.8749999400000021  0.8749999400000021  0.1249999930000030
  0.3749999699999975  0.1249999930000030  0.3749999699999975
  0.3749999699999975  0.3749999699999975  0.1249999930000030
  0.8749999400000021  0.1249999930000030  0.8749999400000021
  0.6249999400000021  0.1249999930000030  0.6249999400000021
  0.1249999930000030  0.8749999400000021  0.8749999400000021
  0.1249999930000030  0.3749999699999975  0.3749999699999975
  0.6249999400000021  0.6249999400000021  0.1249999930000030
  0.4999999699999975  0.4999999699999975  0.4999999699999975
  0.4999999699999975  0.0000000000000000 -0.0000000000000000
  0.0000000000000000  0.0000000000000000  0.4999999699999975
  0.0000000000000000  0.4999999699999975 -0.0000000000000000
  0.2499999850000023  0.7499999400000021  0.2499999850000023
  0.7499999400000021  0.7499999400000021  0.7499999400000021
  0.7499999400000021  0.2499999850000023  0.2499999850000023
  0.2499999850000023  0.2499999850000023  0.7499999400000021
 
  0.00000000E+00  0.00000000E+00  0.00000000E+00
  0.00000000E+00  0.00000000E+00  0.00000000E+00
  0.00000000E+00  0.00000000E+00  0.00000000E+00
  0.00000000E+00  0.00000000E+00  0.00000000E+00
  0.00000000E+00  0.00000000E+00  0.00000000E+00
  0.00000000E+00  0.00000000E+00  0.00000000E+00
  0.00000000E+00  0.00000000E+00  0.00000000E+00
  0.00000000E+00  0.00000000E+00  0.00000000E+00
  0.00000000E+00  0.00000000E+00  0.00000000E+00
  0.00000000E+00  0.00000000E+00  0.00000000E+00
  0.00000000E+00  0.00000000E+00  0.00000000E+00
  0.00000000E+00  0.00000000E+00  0.00000000E+00
  0.00000000E+00  0.00000000E+00  0.00000000E+00
  0.00000000E+00  0.00000000E+00  0.00000000E+00
  0.00000000E+00  0.00000000E+00  0.00000000E+00
  0.00000000E+00  0.00000000E+00  0.00000000E+00
  0.00000000E+00  0.00000000E+00  0.00000000E+00
  0.00000000E+00  0.00000000E+00  0.00000000E+00
  0.00000000E+00  0.00000000E+00  0.00000000E+00
  0.00000000E+00  0.00000000E+00  0.00000000E+00
  0.00000000E+00  0.00000000E+00  0.00000000E+00
  0.00000000E+00  0.00000000E+00  0.00000000E+00
  0.00000000E+00  0.00000000E+00  0.00000000E+00
  0.00000000E+00  0.00000000E+00  0.00000000E+00
  0.00000000E+00  0.00000000E+00  0.00000000E+00
  0.00000000E+00  0.00000000E+00  0.00000000E+00
  0.00000000E+00  0.00000000E+00  0.00000000E+00
  0.00000000E+00  0.00000000E+00  0.00000000E+00
  0.00000000E+00  0.00000000E+00  0.00000000E+00
  0.00000000E+00  0.00000000E+00  0.00000000E+00
  0.00000000E+00  0.00000000E+00  0.00000000E+00
  0.00000000E+00  0.00000000E+00  0.00000000E+00
  0.00000000E+00  0.00000000E+00  0.00000000E+00
  0.00000000E+00  0.00000000E+00  0.00000000E+00
  0.00000000E+00  0.00000000E+00  0.00000000E+00
  0.00000000E+00  0.00000000E+00  0.00000000E+00
  0.00000000E+00  0.00000000E+00  0.00000000E+00
  0.00000000E+00  0.00000000E+00  0.00000000E+00
  0.00000000E+00  0.00000000E+00  0.00000000E+00
  0.00000000E+00  0.00000000E+00  0.00000000E+00
  0.00000000E+00  0.00000000E+00  0.00000000E+00
  0.00000000E+00  0.00000000E+00  0.00000000E+00
  0.00000000E+00  0.00000000E+00  0.00000000E+00
  0.00000000E+00  0.00000000E+00  0.00000000E+00
  0.00000000E+00  0.00000000E+00  0.00000000E+00
  0.00000000E+00  0.00000000E+00  0.00000000E+00
  0.00000000E+00  0.00000000E+00  0.00000000E+00
  0.00000000E+00  0.00000000E+00  0.00000000E+00
  0.00000000E+00  0.00000000E+00  0.00000000E+00
  0.00000000E+00  0.00000000E+00  0.00000000E+00
  0.00000000E+00  0.00000000E+00  0.00000000E+00
  0.00000000E+00  0.00000000E+00  0.00000000E+00
  0.00000000E+00  0.00000000E+00  0.00000000E+00
  0.00000000E+00  0.00000000E+00  0.00000000E+00
  0.00000000E+00  0.00000000E+00  0.00000000E+00
  0.00000000E+00  0.00000000E+00  0.00000000E+00
