Al2 Mg O4
1.0
        8.1549997330         0.0000000000         0.0000000000
        0.0000000000         8.1549997330         0.0000000000
        0.0000000000         0.0000000000         8.1549997330
    O   Al   Mg
   32   16    8
Direct
     0.362799972         0.362799972         0.362799972
     0.637199938         0.137199983         0.862799942
     0.137199983         0.862799942         0.637199938
     0.862799942         0.637199938         0.137199983
     0.112799995         0.612799942         0.387199968
     0.887199938         0.887199938         0.887199938
     0.612799942         0.387199968         0.112799995
     0.387199968         0.112799995         0.612799942
     0.612799942         0.112799995         0.387199968
     0.112799995         0.387199968         0.612799942
     0.387199968         0.612799942         0.112799995
     0.137199983         0.637199938         0.862799942
     0.637199938         0.862799942         0.137199983
     0.862799942         0.137199983         0.637199938
     0.362799972         0.862799942         0.862799942
     0.637199938         0.637199938         0.362799972
     0.137199983         0.362799972         0.137199983
     0.112799995         0.112799995         0.887199938
     0.887199938         0.387199968         0.387199968
     0.612799942         0.887199938         0.612799942
     0.612799942         0.612799942         0.887199938
     0.112799995         0.887199938         0.112799995
     0.137199983         0.137199983         0.362799972
     0.637199938         0.362799972         0.637199938
     0.862799942         0.362799972         0.862799942
     0.362799972         0.637199938         0.637199938
     0.387199968         0.887199938         0.387199968
     0.887199938         0.112799995         0.112799995
     0.887199938         0.612799942         0.612799942
     0.362799972         0.137199983         0.137199983
     0.862799942         0.862799942         0.362799972
     0.387199968         0.387199968         0.887199938
     0.124999993         0.124999993         0.124999993
     0.874999940         0.374999970         0.624999940
     0.374999970         0.624999940         0.874999940
     0.624999940         0.874999940         0.374999970
     0.374999970         0.874999940         0.624999940
     0.874999940         0.624999940         0.374999970
     0.624999940         0.374999970         0.874999940
     0.124999993         0.624999940         0.624999940
     0.874999940         0.874999940         0.124999993
     0.374999970         0.124999993         0.374999970
     0.374999970         0.374999970         0.124999993
     0.874999940         0.124999993         0.874999940
     0.624999940         0.124999993         0.624999940
     0.124999993         0.874999940         0.874999940
     0.124999993         0.374999970         0.374999970
     0.624999940         0.624999940         0.124999993
     0.499999970         0.499999970         0.499999970
     0.499999970         0.000000000         0.000000000
     0.000000000         0.000000000         0.499999970
     0.000000000         0.499999970         0.000000000
     0.249999985         0.749999940         0.249999985
     0.749999940         0.749999940         0.749999940
     0.749999940         0.249999985         0.249999985
     0.249999985         0.249999985         0.749999940
